nb_edges = 45;
e_name = ["aa", "ab", "ac", "ad", "ae", "af", "ag", "ah", "ai", "aj", "ak", "al", "am", "an", "ao", "ap", "aq", "ar", "as", "at", "au", "av", "aw", "ax", "ay", "az", "ba", "bb", "bc", "bd", "be", "bf", "bg", "bh", "bi", "bj", "bk", "bl", "bm", "bn", "bo", "bp", "bq", "br", "bs"];
e_type = [border, border, inter, inter, inter, inter, inter, inter, inter, inter, inter, inter, inter, inter, inter, platform, platform, platform, platform, platform, platform, platform, platform, platform, platform, platform, platform, platform, platform, platform, inter, inter, inter, inter, inter, inter, inter, inter, inter, inter, inter, inter, inter, border, border];
e_cols = [{1},{2},{3},{4},{5},{6},{7},{8},{9,10},{11},{12},{13},{14},{15},{16},{17},{18},{19},{20},{21},{22},{23},{24},{25},{26},{27},{28},{29},{30},{31},{32,33},{34},{35},{36},{37},{38},{39},{40},{41},{42},{43},{44},{45},{46},{47}];
nb_trains = 4;
t_name = ["T1", "T2", "T3", "T4"];
t_routes = [{1},{2},{3},{4}];
t_est = [113, 475, 564, 767];
t_type = [appear, vanish, vanish, appear];
nb_routes = 4;
r_name = ["I1W", "IW3", "IW2", "I2W"];
r_it_1 = ["I1W", "IW3", "IW2", "I2W"];
r_it_2 = ["", "", "", ""];
r_platform_name = ["S_I", "S_III", "S_II", "S_II"];
r_dwell_min = [1, 100, 100, 1];
r_dur_min = [60, 60, 60, 60];
r_overlap = [0, 0, 0, 0];
r_block_start = [1, 8, 16, 24];
r_block_end = [7, 15, 23, 31];
r_train = [1, 2, 3, 4];
nb_blocks = 31;
b_edge = [26, 21, 16, 9, 6, 4, 2, 1, 3, 6, 10, 13, 18, 23, 28, 1, 3, 6, 10, 12, 17, 22, 27, 27, 22, 17, 12, 10, 6, 4, 2];
b_dur = [0, 0, 0, 15, 30, 45, 60, 7, 15, 22, 30, 37, 45, 52, 60, 7, 15, 22, 30, 37, 45, 52, 60, 0, 0, 0, 12, 24, 36, 48, 60];
b_start_offset = [0, 0, 0, 0, -15, -30, -45, 0, -7, -15, -22, -30, -37, -45, -52, 0, -7, -15, -22, -30, -37, -45, -52, 0, 0, 0, 0, -12, -24, -36, -48];
b_stop = [true, true, true, false, false, false, false, false, false, false, false, false, false, false, true, false, false, false, false, false, false, false, true, true, true, true, false, false, false, false, false];
b_route = [1, 1, 1, 1, 1, 1, 1, 2, 2, 2, 2, 2, 2, 2, 2, 3, 3, 3, 3, 3, 3, 3, 3, 4, 4, 4, 4, 4, 4, 4, 4];
